1 40 47 
2 94 90 
3 15 37 
4 71 47 
5 100 45 
6 38 38 
7 61 56 
8 13 13 
9 13 21 
10 36 46 
11 5 36 
12 56 18 
13 17 61 
14 27 49 
15 66 26 
16 98 2 
17 39 92 
18 36 76 
19 55 46 
20 65 99 
21 19 31 
22 27 24 
23 11 14 
24 98 94 
25 92 23 
